c This is UnifRandomKSATGenerator
c uniform random 3-SAT generated instance with: 
c clause length: 3 
c number variables: 20 
c number clauses: 85 
c clause to variable ratio: 4.27 
c random number generator name: SHA1PRNG 
c random number generator provider: SUN 
c random number generator seed: 7688853296158439771 
p cnf 20 85
5 14 -8 0
-9 -5 7 0
16 5 -8 0
9 2 15 0
-17 -11 -12 0
-18 -11 -14 0
17 14 -16 0
-2 1 -12 0
1 -6 -14 0
10 11 -6 0
18 6 -16 0
-10 11 -20 0
-18 -14 6 0
-12 -13 6 0
-2 -4 13 0
18 10 6 0
17 -19 18 0
16 3 4 0
16 -12 15 0
9 18 -15 0
1 3 -7 0
17 18 -3 0
-19 13 -7 0
-1 19 -8 0
-17 -20 19 0
2 11 -15 0
-1 -12 -14 0
3 -4 -6 0
-19 11 12 0
-17 9 7 0
16 -10 13 0
-1 -9 -13 0
2 -5 -7 0
-13 4 -15 0
3 12 -7 0
-5 14 -15 0
17 3 -7 0
2 13 5 0
-1 16 -5 0
19 3 7 0
8 -17 12 0
10 14 -16 0
10 -14 6 0
10 4 -15 0
-1 -18 -10 0
-19 4 15 0
8 -2 -18 0
-9 8 16 0
19 -14 6 0
4 20 -15 0
-6 14 -16 0
10 -12 -6 0
-2 -10 15 0
-3 4 20 0
16 18 11 0
-17 9 18 0
3 12 -16 0
1 -12 -5 0
16 13 -7 0
-9 -18 6 0
-9 4 -7 0
1 5 7 0
-1 -2 11 0
16 9 13 0
-17 19 -15 0
16 19 -14 0
18 10 -13 0
1 -4 -8 0
18 14 -7 0
-2 -11 7 0
16 17 -2 0
-10 2 -8 0
20 4 -16 0
-2 -7 6 0
-10 -11 5 0
-2 -11 13 0
8 5 6 0
16 20 6 0
-20 13 14 0
17 -10 -11 0
-11 3 -20 0
-9 -19 6 0
-1 -11 6 0
-17 1 -19 0
8 3 -5 0
